[[58, 72, 39, 9, 25, 55, 50, 18, 24, 3, 44, 32, 40, 12, 17, 51, 76, 75, 68, 6, 2, 62, 73, 33, 16, 63, 49], [23, 56, 43, 41, 42, 64, 22, 61, 28, 74, 21, 47, 36, 69, 71, 60, 70, 20, 37, 57, 15, 5], [29, 48, 30, 45, 4, 67, 26, 34, 46, 7, 8, 52, 27, 13, 54, 19, 35, 53, 14, 59, 11, 66, 65, 38, 10, 31]]